33D32945 STP File, STP Format Version 1.0

SECTION Comment
Name    "i160-143"
Creator "Cees Duin"
Remark  "Incidence graph"
END

SECTION Graph
Nodes 160
Edges 2544
E 1 9 298
E 1 22 193
E 1 32 192
E 1 34 191
E 1 40 196
E 1 42 195
E 1 52 209
E 1 55 195
E 1 57 202
E 1 60 202
E 1 61 195
E 1 63 208
E 1 66 199
E 1 69 200
E 1 72 194
E 1 76 201
E 1 77 207
E 1 81 196
E 1 82 201
E 1 94 192
E 1 101 199
E 1 103 195
E 1 104 202
E 1 108 200
E 1 113 200
E 1 114 199
E 1 115 196
E 1 116 204
E 1 120 202
E 1 123 210
E 1 128 205
E 1 129 195
E 1 134 194
E 1 138 194
E 1 139 201
E 1 143 192
E 1 146 193
E 1 147 202
E 1 150 197
E 2 12 305
E 2 17 201
E 2 22 199
E 2 23 196
E 2 24 201
E 2 33 200
E 2 47 202
E 2 48 188
E 2 50 193
E 2 59 198
E 2 78 192
E 2 80 201
E 2 81 204
E 2 82 203
E 2 83 197
E 2 84 199
E 2 89 197
E 2 92 203
E 2 95 196
E 2 96 204
E 2 98 205
E 2 106 200
E 2 108 201
E 2 110 192
E 2 111 195
E 2 117 197
E 2 129 205
E 2 132 205
E 2 140 204
E 2 144 204
E 2 148 198
E 2 155 192
E 2 158 202
E 3 9 297
E 3 20 199
E 3 21 194
E 3 22 201
E 3 27 199
E 3 36 196
E 3 44 209
E 3 47 187
E 3 53 203
E 3 54 199
E 3 55 201
E 3 57 205
E 3 65 204
E 3 75 199
E 3 76 200
E 3 78 209
E 3 83 204
E 3 101 192
E 3 106 194
E 3 109 202
E 3 110 204
E 3 112 203
E 3 126 190
E 3 131 201
E 3 133 193
E 3 134 199
E 3 136 197
E 3 137 200
E 3 138 194
E 3 140 201
E 3 143 197
E 3 144 212
E 3 146 201
E 3 154 200
E 3 158 207
E 4 9 301
E 4 21 193
E 4 27 199
E 4 28 196
E 4 29 206
E 4 30 201
E 4 32 201
E 4 38 204
E 4 44 200
E 4 48 206
E 4 49 199
E 4 56 202
E 4 68 198
E 4 69 199
E 4 70 190
E 4 76 203
E 4 91 201
E 4 98 206
E 4 108 206
E 4 109 199
E 4 111 201
E 4 114 203
E 4 118 205
E 4 119 205
E 4 130 201
E 4 132 191
E 4 144 202
E 4 157 194
E 5 9 298
E 5 11 296
E 5 13 204
E 5 22 201
E 5 25 199
E 5 26 204
E 5 30 200
E 5 37 199
E 5 39 199
E 5 42 199
E 5 43 191
E 5 55 193
E 5 56 199
E 5 69 187
E 5 72 196
E 5 81 190
E 5 91 202
E 5 94 203
E 5 96 199
E 5 98 196
E 5 100 201
E 5 104 198
E 5 111 193
E 5 114 198
E 5 115 204
E 5 116 194
E 5 130 197
E 5 135 205
E 5 137 193
E 5 148 202
E 6 8 294
E 6 14 199
E 6 15 206
E 6 16 187
E 6 41 199
E 6 42 208
E 6 50 191
E 6 54 207
E 6 56 198
E 6 58 205
E 6 62 194
E 6 69 200
E 6 81 194
E 6 98 200
E 6 102 202
E 6 105 198
E 6 114 196
E 6 120 205
E 6 121 195
E 6 127 200
E 6 130 204
E 6 133 196
E 6 134 199
E 6 142 195
E 6 144 195
E 6 156 190
E 6 157 203
E 6 159 195
E 7 19 197
E 7 21 204
E 7 22 192
E 7 24 194
E 7 29 199
E 7 30 202
E 7 33 189
E 7 35 197
E 7 36 205
E 7 58 209
E 7 63 198
E 7 71 195
E 7 76 196
E 7 82 203
E 7 83 210
E 7 87 202
E 7 88 201
E 7 94 203
E 7 97 196
E 7 103 204
E 7 116 192
E 7 119 195
E 7 125 198
E 7 131 211
E 7 138 202
E 7 141 199
E 7 145 196
E 7 151 207
E 7 156 197
E 7 160 197
E 8 10 288
E 8 13 204
E 8 28 200
E 8 30 216
E 8 33 206
E 8 45 197
E 8 47 198
E 8 51 202
E 8 53 193
E 8 59 200
E 8 63 197
E 8 68 195
E 8 80 202
E 8 83 199
E 8 86 194
E 8 88 191
E 8 89 202
E 8 91 208
E 8 97 199
E 8 98 195
E 8 104 202
E 8 107 200
E 8 108 195
E 8 110 192
E 8 112 195
E 8 114 199
E 8 117 198
E 8 122 204
E 8 123 205
E 8 128 209
E 8 129 195
E 8 132 200
E 8 140 206
E 8 150 197
E 9 11 300
E 9 29 194
E 9 34 202
E 9 35 201
E 9 52 196
E 9 57 197
E 9 61 203
E 9 63 195
E 9 64 199
E 9 65 198
E 9 67 203
E 9 72 200
E 9 74 198
E 9 76 201
E 9 78 206
E 9 85 202
E 9 97 185
E 9 113 189
E 9 116 200
E 9 131 194
E 9 132 204
E 9 138 195
E 9 151 203
E 9 152 205
E 9 159 201
E 9 160 198
E 10 25 203
E 10 43 200
E 10 45 199
E 10 48 210
E 10 55 191
E 10 56 199
E 10 60 195
E 10 61 205
E 10 66 199
E 10 72 201
E 10 76 194
E 10 80 205
E 10 86 202
E 10 92 205
E 10 94 186
E 10 99 210
E 10 100 199
E 10 104 209
E 10 121 209
E 10 124 210
E 10 125 198
E 10 127 205
E 10 130 208
E 10 132 192
E 10 138 198
E 10 139 198
E 11 15 199
E 11 29 202
E 11 38 192
E 11 40 191
E 11 43 201
E 11 54 202
E 11 58 192
E 11 63 196
E 11 74 204
E 11 75 203
E 11 79 208
E 11 83 200
E 11 86 199
E 11 91 211
E 11 93 197
E 11 100 203
E 11 101 197
E 11 106 197
E 11 107 194
E 11 111 193
E 11 115 196
E 11 122 202
E 11 125 203
E 11 127 205
E 11 133 204
E 11 134 196
E 11 138 204
E 11 141 200
E 12 13 205
E 12 16 206
E 12 20 201
E 12 21 202
E 12 26 201
E 12 33 207
E 12 40 202
E 12 47 206
E 12 48 199
E 12 50 196
E 12 52 202
E 12 56 198
E 12 70 203
E 12 78 203
E 12 80 197
E 12 91 204
E 12 94 209
E 12 95 207
E 12 105 193
E 12 111 195
E 12 113 194
E 12 115 199
E 12 116 198
E 12 121 198
E 12 128 201
E 12 129 198
E 12 136 196
E 12 149 200
E 12 152 200
E 12 153 202
E 12 155 197
E 12 157 196
E 13 14 103
E 13 20 98
E 13 31 101
E 13 32 93
E 13 39 96
E 13 40 92
E 13 42 106
E 13 59 102
E 13 63 103
E 13 67 111
E 13 69 101
E 13 73 104
E 13 76 103
E 13 79 97
E 13 83 105
E 13 88 102
E 13 93 99
E 13 94 94
E 13 99 99
E 13 101 106
E 13 106 96
E 13 111 100
E 13 114 98
E 13 115 106
E 13 120 101
E 13 124 102
E 13 134 99
E 13 137 98
E 13 138 105
E 13 143 99
E 13 153 103
E 13 154 91
E 13 157 100
E 13 159 97
E 14 23 100
E 14 24 95
E 14 31 101
E 14 49 93
E 14 63 100
E 14 65 105
E 14 76 101
E 14 79 109
E 14 83 98
E 14 86 94
E 14 88 97
E 14 89 100
E 14 94 101
E 14 99 104
E 14 101 97
E 14 102 99
E 14 104 95
E 14 105 100
E 14 108 94
E 14 109 93
E 14 111 97
E 14 113 102
E 14 117 104
E 14 118 93
E 14 133 98
E 14 145 99
E 14 153 94
E 14 156 93
E 14 157 97
E 14 158 96
E 15 29 98
E 15 32 102
E 15 41 99
E 15 53 91
E 15 59 99
E 15 63 92
E 15 67 104
E 15 69 98
E 15 72 94
E 15 74 99
E 15 79 107
E 15 84 104
E 15 85 108
E 15 86 94
E 15 89 97
E 15 93 97
E 15 94 98
E 15 100 102
E 15 107 105
E 15 111 92
E 15 119 96
E 15 120 97
E 15 125 93
E 15 131 105
E 15 133 99
E 15 136 106
E 15 142 108
E 15 144 101
E 15 145 98
E 15 147 107
E 15 152 111
E 15 153 103
E 15 159 96
E 16 24 106
E 16 25 106
E 16 27 103
E 16 31 102
E 16 36 100
E 16 39 110
E 16 56 90
E 16 66 96
E 16 71 98
E 16 73 98
E 16 81 93
E 16 83 97
E 16 90 103
E 16 92 101
E 16 99 103
E 16 101 100
E 16 103 94
E 16 111 99
E 16 112 103
E 16 136 96
E 16 144 90
E 16 147 103
E 16 149 91
E 16 150 93
E 16 152 96
E 16 156 101
E 16 158 107
E 17 18 100
E 17 19 86
E 17 24 96
E 17 25 99
E 17 31 96
E 17 43 106
E 17 48 101
E 17 59 100
E 17 68 97
E 17 70 92
E 17 72 93
E 17 74 96
E 17 80 97
E 17 81 100
E 17 85 109
E 17 86 88
E 17 89 96
E 17 91 108
E 17 92 105
E 17 95 98
E 17 102 101
E 17 103 102
E 17 104 100
E 17 105 97
E 17 115 99
E 17 117 102
E 17 132 91
E 17 133 104
E 17 135 102
E 17 137 105
E 17 144 96
E 17 145 98
E 17 153 97
E 18 25 100
E 18 29 99
E 18 34 96
E 18 35 93
E 18 36 97
E 18 43 102
E 18 46 94
E 18 47 100
E 18 52 99
E 18 53 109
E 18 56 92
E 18 58 102
E 18 66 96
E 18 69 101
E 18 71 106
E 18 76 93
E 18 79 93
E 18 81 99
E 18 84 92
E 18 85 97
E 18 88 96
E 18 94 95
E 18 98 102
E 18 104 94
E 18 109 95
E 18 119 105
E 18 138 101
E 18 143 102
E 18 160 98
E 19 21 99
E 19 26 96
E 19 28 102
E 19 29 98
E 19 35 106
E 19 41 106
E 19 43 97
E 19 47 105
E 19 49 97
E 19 53 97
E 19 54 96
E 19 55 103
E 19 66 99
E 19 70 97
E 19 75 90
E 19 77 100
E 19 78 93
E 19 79 112
E 19 81 95
E 19 89 92
E 19 91 103
E 19 97 95
E 19 103 95
E 19 106 101
E 19 126 101
E 19 127 96
E 19 130 95
E 19 131 97
E 19 139 91
E 19 148 103
E 19 156 105
E 19 159 108
E 20 31 105
E 20 39 109
E 20 46 106
E 20 51 104
E 20 53 97
E 20 60 102
E 20 61 101
E 20 62 97
E 20 64 104
E 20 69 101
E 20 75 109
E 20 78 92
E 20 85 101
E 20 89 106
E 20 93 97
E 20 94 102
E 20 95 92
E 20 108 110
E 20 114 106
E 20 127 95
E 20 132 103
E 20 138 96
E 20 140 105
E 20 144 101
E 20 145 96
E 20 155 97
E 20 159 99
E 21 26 106
E 21 33 107
E 21 35 94
E 21 41 96
E 21 49 110
E 21 57 99
E 21 64 99
E 21 70 104
E 21 73 97
E 21 78 100
E 21 81 98
E 21 88 111
E 21 91 95
E 21 100 106
E 21 103 101
E 21 104 110
E 21 106 92
E 21 108 97
E 21 111 106
E 21 117 91
E 21 122 99
E 21 125 100
E 21 126 100
E 21 140 98
E 21 144 98
E 21 149 101
E 21 151 102
E 21 154 100
E 22 25 96
E 22 31 107
E 22 34 94
E 22 41 98
E 22 50 98
E 22 64 96
E 22 65 102
E 22 66 98
E 22 67 95
E 22 73 89
E 22 76 100
E 22 77 101
E 22 87 103
E 22 98 102
E 22 105 94
E 22 106 107
E 22 107 97
E 22 108 100
E 22 117 97
E 22 118 91
E 22 119 103
E 22 122 90
E 22 125 97
E 22 131 99
E 22 134 106
E 22 144 98
E 22 145 93
E 22 152 103
E 22 156 103
E 22 159 100
E 23 25 105
E 23 30 94
E 23 32 93
E 23 34 100
E 23 36 100
E 23 39 97
E 23 41 104
E 23 51 96
E 23 57 96
E 23 62 100
E 23 66 100
E 23 70 100
E 23 74 89
E 23 77 104
E 23 79 107
E 23 80 105
E 23 84 99
E 23 86 98
E 23 92 99
E 23 96 94
E 23 99 99
E 23 105 107
E 23 110 91
E 23 111 100
E 23 115 105
E 23 116 102
E 23 117 97
E 23 119 99
E 23 127 98
E 23 130 101
E 23 135 97
E 23 142 101
E 23 145 103
E 23 146 95
E 23 159 100
E 24 29 105
E 24 32 105
E 24 36 102
E 24 40 96
E 24 42 88
E 24 43 105
E 24 44 101
E 24 45 100
E 24 50 105
E 24 52 101
E 24 55 92
E 24 58 93
E 24 60 99
E 24 61 98
E 24 64 94
E 24 75 94
E 24 76 102
E 24 83 101
E 24 85 98
E 24 87 97
E 24 92 108
E 24 95 100
E 24 99 95
E 24 104 95
E 24 121 107
E 24 122 96
E 24 134 96
E 24 136 98
E 24 142 86
E 24 146 113
E 24 147 107
E 24 150 100
E 24 152 106
E 24 156 94
E 24 159 96
E 25 34 100
E 25 39 104
E 25 45 104
E 25 48 93
E 25 55 105
E 25 62 104
E 25 70 99
E 25 73 96
E 25 80 93
E 25 101 102
E 25 103 102
E 25 105 102
E 25 106 100
E 25 114 100
E 25 115 91
E 25 116 95
E 25 122 106
E 25 127 99
E 25 133 115
E 25 137 104
E 25 140 94
E 25 144 107
E 25 150 89
E 26 28 89
E 26 29 96
E 26 30 93
E 26 42 94
E 26 45 95
E 26 46 95
E 26 55 98
E 26 65 97
E 26 73 106
E 26 74 100
E 26 78 98
E 26 89 97
E 26 100 98
E 26 102 102
E 26 104 103
E 26 108 106
E 26 120 95
E 26 124 106
E 26 127 100
E 26 135 106
E 26 137 101
E 26 138 95
E 26 151 101
E 26 156 101
E 27 29 90
E 27 30 91
E 27 34 108
E 27 41 94
E 27 50 95
E 27 51 98
E 27 52 98
E 27 56 98
E 27 57 92
E 27 61 92
E 27 66 96
E 27 71 100
E 27 80 97
E 27 83 103
E 27 84 105
E 27 85 100
E 27 87 95
E 27 89 92
E 27 94 97
E 27 95 108
E 27 96 103
E 27 99 105
E 27 100 101
E 27 103 102
E 27 117 107
E 27 120 103
E 27 123 103
E 27 128 101
E 27 129 98
E 27 130 97
E 27 142 93
E 27 154 104
E 27 157 104
E 28 29 98
E 28 33 97
E 28 38 103
E 28 43 94
E 28 69 101
E 28 71 101
E 28 79 95
E 28 82 100
E 28 84 99
E 28 85 108
E 28 93 104
E 28 94 99
E 28 96 102
E 28 108 88
E 28 118 101
E 28 126 102
E 28 131 101
E 28 138 105
E 28 141 107
E 28 158 87
E 29 31 94
E 29 32 94
E 29 51 94
E 29 52 96
E 29 53 100
E 29 58 101
E 29 60 95
E 29 64 102
E 29 72 99
E 29 73 113
E 29 77 99
E 29 90 99
E 29 91 97
E 29 92 97
E 29 108 104
E 29 109 103
E 29 110 104
E 29 114 102
E 29 119 106
E 29 132 101
E 29 136 97
E 29 139 96
E 29 154 98
E 29 156 100
E 29 157 101
E 29 158 97
E 30 32 106
E 30 46 96
E 30 49 109
E 30 51 99
E 30 66 101
E 30 67 109
E 30 81 93
E 30 86 91
E 30 87 90
E 30 94 109
E 30 105 87
E 30 106 96
E 30 108 107
E 30 122 99
E 30 124 100
E 30 132 106
E 30 133 99
E 30 140 105
E 30 144 103
E 30 147 101
E 30 151 101
E 31 32 99
E 31 35 97
E 31 37 96
E 31 46 100
E 31 48 97
E 31 49 94
E 31 51 98
E 31 52 98
E 31 56 101
E 31 57 97
E 31 69 104
E 31 70 96
E 31 72 93
E 31 79 102
E 31 80 97
E 31 86 99
E 31 90 96
E 31 92 94
E 31 94 98
E 31 99 95
E 31 100 93
E 31 109 97
E 31 111 100
E 31 114 108
E 31 115 108
E 31 117 97
E 31 118 96
E 31 121 99
E 31 123 96
E 31 132 99
E 31 137 97
E 31 139 107
E 31 140 99
E 31 141 102
E 31 145 101
E 31 153 104
E 31 156 103
E 32 42 105
E 32 44 100
E 32 51 96
E 32 55 95
E 32 60 103
E 32 63 107
E 32 70 99
E 32 80 98
E 32 81 95
E 32 88 102
E 32 90 95
E 32 91 105
E 32 105 104
E 32 106 100
E 32 108 98
E 32 110 101
E 32 116 104
E 32 120 104
E 32 124 101
E 32 129 94
E 32 132 93
E 32 135 100
E 32 136 117
E 32 139 104
E 32 140 104
E 32 141 99
E 32 142 93
E 32 152 96
E 32 153 99
E 32 155 105
E 33 42 101
E 33 43 103
E 33 46 104
E 33 50 99
E 33 55 103
E 33 57 106
E 33 63 111
E 33 64 108
E 33 71 90
E 33 73 102
E 33 75 104
E 33 78 95
E 33 80 102
E 33 83 104
E 33 91 103
E 33 103 109
E 33 110 98
E 33 114 103
E 33 119 96
E 33 132 100
E 33 137 100
E 33 140 100
E 33 143 103
E 33 145 103
E 33 160 104
E 34 36 102
E 34 39 103
E 34 42 104
E 34 43 95
E 34 46 107
E 34 50 104
E 34 61 97
E 34 62 99
E 34 82 99
E 34 83 97
E 34 84 103
E 34 99 101
E 34 115 99
E 34 116 99
E 34 120 97
E 34 121 98
E 34 136 99
E 34 143 95
E 34 146 100
E 34 148 105
E 34 149 104
E 34 157 104
E 35 38 108
E 35 42 103
E 35 54 102
E 35 61 108
E 35 64 96
E 35 68 99
E 35 69 95
E 35 79 102
E 35 80 101
E 35 87 103
E 35 93 112
E 35 96 96
E 35 100 96
E 35 101 99
E 35 105 98
E 35 112 99
E 35 118 100
E 35 121 96
E 35 133 95
E 35 135 93
E 35 137 102
E 35 139 100
E 35 142 97
E 35 157 102
E 35 160 111
E 36 44 99
E 36 47 95
E 36 56 103
E 36 60 106
E 36 61 111
E 36 68 99
E 36 69 106
E 36 78 91
E 36 79 102
E 36 80 104
E 36 84 100
E 36 93 91
E 36 94 101
E 36 98 103
E 36 112 94
E 36 114 101
E 36 119 107
E 36 121 98
E 36 123 98
E 36 136 103
E 36 138 106
E 36 139 101
E 36 150 103
E 37 40 99
E 37 42 97
E 37 43 102
E 37 47 97
E 37 50 91
E 37 51 102
E 37 54 97
E 37 56 97
E 37 63 106
E 37 64 95
E 37 71 100
E 37 72 92
E 37 75 107
E 37 82 95
E 37 85 97
E 37 93 99
E 37 99 107
E 37 113 93
E 37 115 98
E 37 116 101
E 37 120 94
E 37 128 104
E 37 135 105
E 37 136 97
E 37 141 97
E 37 142 100
E 37 149 95
E 37 152 96
E 37 154 104
E 37 158 98
E 38 39 94
E 38 42 99
E 38 44 97
E 38 48 97
E 38 49 90
E 38 58 97
E 38 64 100
E 38 67 104
E 38 72 98
E 38 81 111
E 38 87 99
E 38 89 106
E 38 93 98
E 38 96 96
E 38 107 101
E 38 111 109
E 38 113 101
E 38 117 101
E 38 123 100
E 38 129 101
E 38 138 108
E 38 139 86
E 38 153 103
E 39 42 101
E 39 43 91
E 39 49 102
E 39 50 105
E 39 54 93
E 39 57 100
E 39 59 98
E 39 61 103
E 39 72 95
E 39 73 101
E 39 74 103
E 39 75 98
E 39 83 98
E 39 85 96
E 39 96 100
E 39 98 105
E 39 99 87
E 39 100 101
E 39 105 101
E 39 110 102
E 39 114 100
E 39 121 103
E 39 127 100
E 39 128 107
E 39 132 102
E 39 152 97
E 39 154 98
E 39 156 115
E 40 44 101
E 40 46 108
E 40 49 105
E 40 51 100
E 40 52 105
E 40 57 102
E 40 69 106
E 40 71 102
E 40 75 99
E 40 85 103
E 40 86 99
E 40 87 106
E 40 94 96
E 40 97 97
E 40 102 101
E 40 105 99
E 40 108 111
E 40 111 113
E 40 112 98
E 40 119 102
E 40 121 98
E 40 123 103
E 40 128 106
E 40 132 102
E 41 43 115
E 41 52 100
E 41 53 98
E 41 65 95
E 41 73 105
E 41 86 98
E 41 88 96
E 41 96 101
E 41 98 94
E 41 101 91
E 41 103 97
E 41 107 96
E 41 108 107
E 41 114 101
E 41 120 98
E 41 124 105
E 41 126 96
E 41 128 108
E 41 137 103
E 41 141 104
E 41 142 97
E 41 148 96
E 41 156 91
E 41 160 100
E 42 47 88
E 42 80 100
E 42 81 102
E 42 85 107
E 42 87 108
E 42 94 99
E 42 99 97
E 42 108 100
E 42 119 102
E 42 123 91
E 42 126 95
E 42 134 94
E 42 143 92
E 42 147 98
E 43 46 94
E 43 50 106
E 43 55 108
E 43 64 104
E 43 68 101
E 43 74 107
E 43 78 102
E 43 90 101
E 43 95 95
E 43 105 103
E 43 106 89
E 43 108 101
E 43 111 100
E 43 112 105
E 43 127 102
E 43 129 103
E 43 131 103
E 43 133 95
E 43 134 102
E 43 142 113
E 43 143 94
E 43 149 96
E 43 153 100
E 43 159 103
E 44 51 96
E 44 54 96
E 44 55 98
E 44 59 96
E 44 60 98
E 44 64 101
E 44 67 95
E 44 73 102
E 44 83 99
E 44 114 98
E 44 120 97
E 44 121 96
E 44 134 98
E 44 136 104
E 44 140 103
E 44 145 98
E 44 146 90
E 44 147 95
E 44 148 103
E 44 152 97
E 45 46 100
E 45 48 103
E 45 51 95
E 45 58 105
E 45 59 97
E 45 70 104
E 45 77 100
E 45 78 100
E 45 80 108
E 45 84 98
E 45 86 101
E 45 88 94
E 45 91 105
E 45 96 102
E 45 103 96
E 45 105 106
E 45 108 97
E 45 116 99
E 45 122 101
E 45 125 98
E 45 127 104
E 45 129 101
E 45 131 97
E 45 135 94
E 45 140 95
E 45 143 99
E 45 144 102
E 45 151 102
E 45 156 95
E 46 48 105
E 46 53 98
E 46 54 89
E 46 56 94
E 46 70 92
E 46 71 101
E 46 74 102
E 46 79 89
E 46 84 107
E 46 85 105
E 46 86 95
E 46 91 96
E 46 94 92
E 46 105 106
E 46 106 97
E 46 108 105
E 46 118 99
E 46 119 105
E 46 128 105
E 46 141 100
E 46 146 100
E 46 150 100
E 46 152 101
E 46 158 105
E 47 52 103
E 47 59 100
E 47 60 99
E 47 63 96
E 47 65 99
E 47 70 94
E 47 71 98
E 47 76 97
E 47 79 112
E 47 80 96
E 47 86 90
E 47 93 98
E 47 96 104
E 47 103 102
E 47 105 98
E 47 114 95
E 47 116 100
E 47 121 104
E 47 122 95
E 47 124 102
E 47 128 91
E 47 135 106
E 47 144 109
E 47 146 103
E 47 155 97
E 47 158 97
E 47 159 96
E 47 160 101
E 48 49 97
E 48 50 102
E 48 51 97
E 48 52 103
E 48 53 96
E 48 66 86
E 48 83 99
E 48 87 105
E 48 104 96
E 48 105 101
E 48 106 89
E 48 109 99
E 48 112 105
E 48 123 109
E 48 136 98
E 48 137 102
E 48 141 103
E 48 143 90
E 49 61 96
E 49 65 94
E 49 79 87
E 49 86 90
E 49 88 96
E 49 94 110
E 49 106 106
E 49 113 102
E 49 114 96
E 49 118 104
E 49 127 97
E 49 129 107
E 49 132 97
E 49 135 99
E 49 139 96
E 49 156 100
E 49 157 101
E 49 158 103
E 49 159 98
E 50 52 103
E 50 55 99
E 50 75 100
E 50 79 100
E 50 87 103
E 50 92 103
E 50 95 94
E 50 96 104
E 50 98 98
E 50 101 103
E 50 106 103
E 50 109 105
E 50 115 91
E 50 117 95
E 50 129 102
E 50 135 102
E 50 136 99
E 50 139 99
E 50 140 93
E 50 142 100
E 50 149 101
E 50 151 97
E 50 154 95
E 51 56 98
E 51 82 97
E 51 83 94
E 51 84 97
E 51 88 99
E 51 89 102
E 51 99 95
E 51 100 97
E 51 110 100
E 51 116 101
E 51 132 95
E 51 139 96
E 51 145 91
E 51 146 99
E 51 152 89
E 51 153 109
E 51 158 110
E 51 160 94
E 52 55 89
E 52 57 103
E 52 70 90
E 52 73 96
E 52 74 95
E 52 81 102
E 52 85 100
E 52 87 98
E 52 92 97
E 52 94 102
E 52 102 100
E 52 106 95
E 52 107 106
E 52 112 96
E 52 116 93
E 52 122 97
E 52 126 111
E 52 131 94
E 52 137 103
E 52 149 97
E 52 151 94
E 52 158 108
E 53 55 101
E 53 58 97
E 53 61 108
E 53 63 99
E 53 67 97
E 53 80 101
E 53 81 97
E 53 84 102
E 53 86 94
E 53 96 103
E 53 97 95
E 53 102 99
E 53 107 98
E 53 113 103
E 53 131 104
E 53 136 104
E 53 137 95
E 53 144 95
E 53 145 108
E 53 148 99
E 53 158 96
E 54 57 97
E 54 66 100
E 54 87 105
E 54 89 106
E 54 113 102
E 54 122 104
E 54 125 107
E 54 126 98
E 54 128 106
E 54 135 95
E 54 144 100
E 54 151 96
E 54 152 101
E 54 157 92
E 54 158 89
E 55 64 97
E 55 70 96
E 55 71 101
E 55 72 96
E 55 79 98
E 55 81 92
E 55 88 99
E 55 92 97
E 55 100 101
E 55 101 101
E 55 104 98
E 55 107 101
E 55 111 96
E 55 114 95
E 55 117 92
E 55 122 98
E 55 134 98
E 55 135 100
E 55 155 107
E 55 156 102
E 56 58 92
E 56 66 111
E 56 73 106
E 56 76 98
E 56 77 95
E 56 89 96
E 56 92 105
E 56 96 104
E 56 97 102
E 56 104 98
E 56 109 95
E 56 110 101
E 56 120 96
E 56 121 90
E 56 124 103
E 56 127 99
E 56 131 106
E 56 141 103
E 56 142 93
E 56 143 97
E 56 147 104
E 56 157 97
E 57 60 103
E 57 70 90
E 57 75 99
E 57 80 99
E 57 84 97
E 57 88 97
E 57 101 101
E 57 111 88
E 57 113 102
E 57 118 99
E 57 130 108
E 57 133 96
E 57 142 102
E 57 143 97
E 57 145 103
E 58 64 101
E 58 69 104
E 58 73 94
E 58 80 101
E 58 85 97
E 58 101 94
E 58 102 102
E 58 113 100
E 58 126 102
E 58 134 111
E 58 137 102
E 58 141 95
E 58 146 100
E 58 158 95
E 58 159 93
E 59 61 97
E 59 73 98
E 59 77 99
E 59 83 92
E 59 87 96
E 59 89 108
E 59 95 100
E 59 101 98
E 59 114 106
E 59 116 95
E 59 121 93
E 59 128 95
E 59 132 101
E 59 136 109
E 59 142 99
E 59 148 95
E 59 158 94
E 60 62 102
E 60 70 108
E 60 89 96
E 60 101 100
E 60 111 107
E 60 114 94
E 60 120 97
E 60 123 100
E 60 124 94
E 60 126 96
E 60 134 98
E 60 137 90
E 60 144 93
E 60 151 102
E 60 156 93
E 61 64 96
E 61 65 99
E 61 67 92
E 61 68 94
E 61 70 103
E 61 71 107
E 61 73 99
E 61 78 105
E 61 82 107
E 61 84 97
E 61 90 90
E 61 99 93
E 61 101 100
E 61 104 96
E 61 105 100
E 61 121 106
E 61 124 106
E 61 129 96
E 61 132 101
E 61 133 93
E 61 134 102
E 61 136 98
E 61 137 94
E 61 154 97
E 61 155 98
E 61 157 94
E 61 158 97
E 61 160 104
E 62 64 102
E 62 66 102
E 62 68 95
E 62 69 97
E 62 74 101
E 62 82 92
E 62 89 99
E 62 92 97
E 62 95 96
E 62 99 97
E 62 102 100
E 62 105 107
E 62 107 106
E 62 116 96
E 62 122 99
E 62 129 102
E 62 130 84
E 62 131 106
E 62 138 95
E 62 146 100
E 62 147 100
E 62 149 97
E 62 156 93
E 63 65 98
E 63 68 94
E 63 69 99
E 63 79 98
E 63 81 103
E 63 84 100
E 63 85 98
E 63 87 101
E 63 93 98
E 63 94 105
E 63 98 106
E 63 100 94
E 63 122 106
E 63 132 98
E 63 141 100
E 63 143 95
E 63 147 111
E 63 149 98
E 63 158 103
E 64 67 100
E 64 68 95
E 64 70 102
E 64 77 99
E 64 78 101
E 64 83 95
E 64 93 103
E 64 97 104
E 64 102 105
E 64 106 95
E 64 107 100
E 64 109 101
E 64 118 101
E 64 133 95
E 64 135 90
E 64 137 96
E 64 143 90
E 64 144 96
E 64 146 98
E 64 155 99
E 64 158 99
E 65 73 105
E 65 76 98
E 65 79 95
E 65 80 93
E 65 84 94
E 65 87 94
E 65 90 100
E 65 96 92
E 65 101 93
E 65 106 103
E 65 109 104
E 65 111 104
E 65 112 97
E 65 115 106
E 65 126 100
E 65 127 86
E 65 128 95
E 65 132 93
E 65 134 110
E 65 140 100
E 65 148 101
E 65 149 103
E 65 150 98
E 65 156 95
E 65 157 93
E 65 158 108
E 66 80 94
E 66 83 101
E 66 90 113
E 66 97 95
E 66 102 103
E 66 109 97
E 66 120 97
E 66 122 102
E 66 126 102
E 66 135 104
E 66 139 94
E 66 140 92
E 66 142 93
E 66 143 95
E 66 146 87
E 66 149 89
E 66 151 107
E 66 156 99
E 67 78 102
E 67 83 94
E 67 90 99
E 67 95 104
E 67 96 108
E 67 98 105
E 67 102 95
E 67 107 99
E 67 119 95
E 67 122 103
E 67 124 100
E 67 140 98
E 67 144 97
E 67 148 100
E 67 153 109
E 67 156 99
E 67 158 108
E 68 70 109
E 68 74 101
E 68 77 98
E 68 87 95
E 68 90 97
E 68 94 107
E 68 95 98
E 68 96 88
E 68 100 104
E 68 101 99
E 68 104 104
E 68 108 108
E 68 109 105
E 68 118 108
E 68 121 101
E 68 124 101
E 68 126 96
E 68 128 104
E 68 130 106
E 68 133 97
E 68 140 98
E 68 149 101
E 68 151 91
E 69 71 110
E 69 81 103
E 69 82 99
E 69 85 100
E 69 87 95
E 69 89 106
E 69 111 98
E 69 135 97
E 69 150 100
E 69 157 97
E 70 72 102
E 70 73 100
E 70 77 101
E 70 78 95
E 70 84 97
E 70 89 102
E 70 90 106
E 70 97 109
E 70 103 94
E 70 106 101
E 70 111 102
E 70 116 101
E 70 132 93
E 70 135 101
E 70 136 105
E 70 138 89
E 70 143 96
E 70 148 98
E 70 150 107
E 70 159 97
E 71 72 93
E 71 74 103
E 71 79 98
E 71 81 94
E 71 104 107
E 71 106 100
E 71 110 99
E 71 115 103
E 71 116 99
E 71 119 103
E 71 121 111
E 71 130 103
E 71 143 97
E 71 147 103
E 71 148 101
E 71 154 97
E 71 156 99
E 72 76 90
E 72 84 101
E 72 87 91
E 72 88 103
E 72 96 95
E 72 101 101
E 72 103 98
E 72 105 97
E 72 107 102
E 72 108 103
E 72 109 101
E 72 110 101
E 72 113 109
E 72 116 90
E 72 119 102
E 72 121 99
E 72 123 98
E 72 128 108
E 72 130 107
E 72 132 102
E 72 140 103
E 72 150 93
E 72 155 98
E 73 75 105
E 73 82 99
E 73 83 102
E 73 87 101
E 73 94 106
E 73 95 94
E 73 99 101
E 73 101 103
E 73 102 96
E 73 112 100
E 73 113 102
E 73 119 99
E 73 120 102
E 73 121 104
E 73 122 96
E 73 137 104
E 73 144 102
E 73 145 102
E 73 149 103
E 73 152 98
E 73 154 97
E 73 155 93
E 74 76 100
E 74 78 107
E 74 88 104
E 74 93 98
E 74 94 96
E 74 96 92
E 74 112 101
E 74 113 99
E 74 120 104
E 74 123 97
E 74 126 91
E 74 128 93
E 74 138 104
E 74 141 99
E 74 144 103
E 74 146 104
E 74 155 99
E 74 158 104
E 74 160 103
E 75 89 100
E 75 91 97
E 75 94 97
E 75 100 104
E 75 105 105
E 75 116 97
E 75 120 95
E 75 121 88
E 75 123 101
E 75 124 105
E 75 125 97
E 75 126 94
E 75 127 104
E 75 133 101
E 75 141 93
E 75 142 99
E 75 151 102
E 75 152 93
E 75 159 110
E 76 80 96
E 76 94 105
E 76 97 98
E 76 103 92
E 76 104 104
E 76 113 101
E 76 117 103
E 76 119 101
E 76 122 103
E 76 123 106
E 76 125 99
E 76 129 106
E 76 131 101
E 76 133 113
E 76 136 115
E 76 141 105
E 76 144 100
E 76 146 100
E 76 149 94
E 76 152 99
E 76 154 105
E 77 78 94
E 77 85 97
E 77 108 96
E 77 109 95
E 77 111 97
E 77 112 89
E 77 114 91
E 77 117 95
E 77 127 100
E 77 132 106
E 77 134 93
E 77 137 100
E 77 141 102
E 77 147 100
E 78 83 94
E 78 85 103
E 78 99 98
E 78 102 102
E 78 104 96
E 78 106 98
E 78 114 100
E 78 131 106
E 78 132 102
E 78 138 96
E 78 143 95
E 78 144 99
E 78 146 106
E 78 153 101
E 78 154 101
E 79 81 100
E 79 110 94
E 79 121 101
E 79 124 95
E 79 132 98
E 79 151 102
E 79 153 97
E 79 158 103
E 79 159 101
E 80 84 105
E 80 87 92
E 80 88 96
E 80 90 102
E 80 108 101
E 80 109 96
E 80 120 106
E 80 125 94
E 80 126 104
E 80 134 97
E 80 148 90
E 80 149 94
E 80 155 93
E 80 160 100
E 81 87 108
E 81 95 102
E 81 110 112
E 81 113 106
E 81 114 102
E 81 115 105
E 81 121 98
E 81 122 97
E 81 125 101
E 81 126 107
E 81 129 104
E 81 132 94
E 81 140 92
E 81 143 104
E 81 145 100
E 81 151 98
E 81 152 106
E 81 156 108
E 81 157 93
E 81 159 93
E 82 83 88
E 82 87 95
E 82 91 95
E 82 95 100
E 82 103 99
E 82 108 100
E 82 109 94
E 82 110 104
E 82 111 96
E 82 112 98
E 82 119 96
E 82 154 97
E 82 158 93
E 83 86 106
E 83 109 103
E 83 111 105
E 83 119 101
E 83 120 101
E 83 121 104
E 83 126 101
E 83 136 91
E 83 140 104
E 83 142 97
E 83 145 95
E 83 149 94
E 83 150 100
E 83 151 109
E 83 159 104
E 84 88 98
E 84 93 96
E 84 103 106
E 84 111 105
E 84 112 109
E 84 121 104
E 84 131 98
E 84 141 102
E 84 143 99
E 84 148 99
E 84 150 96
E 84 153 101
E 84 159 106
E 85 86 103
E 85 90 108
E 85 94 94
E 85 102 104
E 85 103 103
E 85 105 108
E 85 114 100
E 85 115 103
E 85 126 100
E 85 130 102
E 85 135 106
E 85 137 105
E 85 139 98
E 85 156 104
E 85 159 95
E 86 89 94
E 86 90 93
E 86 103 105
E 86 106 99
E 86 107 90
E 86 109 100
E 86 117 100
E 86 124 101
E 86 134 107
E 86 140 94
E 86 143 96
E 86 144 99
E 86 147 102
E 86 149 101
E 86 159 105
E 87 98 100
E 87 104 100
E 87 112 105
E 87 115 96
E 87 120 99
E 87 124 109
E 87 134 104
E 87 139 106
E 87 140 106
E 87 147 93
E 87 150 107
E 87 152 99
E 87 155 95
E 88 94 105
E 88 98 94
E 88 101 93
E 88 105 98
E 88 110 101
E 88 119 87
E 88 121 102
E 88 126 103
E 88 129 97
E 88 135 105
E 88 136 99
E 88 140 103
E 88 141 109
E 88 144 97
E 88 147 102
E 88 154 100
E 89 107 111
E 89 112 98
E 89 115 97
E 89 116 99
E 89 124 92
E 89 125 101
E 89 127 95
E 89 130 97
E 89 134 103
E 89 140 89
E 89 143 95
E 89 146 111
E 89 150 93
E 89 151 100
E 90 93 102
E 90 97 104
E 90 99 98
E 90 104 93
E 90 105 102
E 90 110 102
E 90 119 103
E 90 126 86
E 90 128 102
E 90 134 105
E 90 136 101
E 90 140 102
E 90 142 95
E 90 147 90
E 90 151 101
E 90 152 95
E 90 160 107
E 91 92 98
E 91 108 93
E 91 114 94
E 91 115 97
E 91 118 100
E 91 125 98
E 91 127 102
E 91 129 96
E 91 132 95
E 91 139 110
E 91 144 101
E 91 145 99
E 91 154 97
E 92 101 96
E 92 102 104
E 92 109 97
E 92 118 102
E 92 121 101
E 92 122 95
E 92 130 103
E 92 131 105
E 92 135 102
E 92 140 108
E 92 149 107
E 92 151 99
E 92 157 101
E 93 95 95
E 93 108 98
E 93 110 92
E 93 113 94
E 93 115 92
E 93 119 97
E 93 128 106
E 93 133 105
E 93 136 96
E 93 143 103
E 93 144 100
E 93 153 94
E 93 156 98
E 93 157 99
E 94 97 108
E 94 106 94
E 94 116 101
E 94 118 106
E 94 119 104
E 94 125 104
E 94 134 103
E 94 139 96
E 95 98 97
E 95 100 99
E 95 103 96
E 95 107 93
E 95 109 106
E 95 111 94
E 95 112 95
E 95 126 103
E 95 134 101
E 95 135 101
E 95 137 95
E 95 153 102
E 95 155 107
E 96 98 99
E 96 101 103
E 96 104 99
E 96 105 107
E 96 107 94
E 96 108 92
E 96 116 101
E 96 129 100
E 96 131 100
E 96 146 100
E 96 150 99
E 96 151 100
E 96 154 98
E 96 156 97
E 97 99 95
E 97 105 100
E 97 110 100
E 97 112 104
E 97 115 97
E 97 121 102
E 97 123 98
E 97 127 98
E 97 131 95
E 97 133 104
E 97 134 106
E 97 139 100
E 97 142 98
E 97 150 101
E 97 154 101
E 97 160 103
E 98 106 97
E 98 110 93
E 98 112 101
E 98 113 98
E 98 121 106
E 98 128 95
E 98 131 97
E 98 136 103
E 98 137 94
E 98 140 104
E 98 143 103
E 98 150 108
E 98 157 102
E 98 160 110
E 99 104 97
E 99 106 99
E 99 112 98
E 99 116 95
E 99 119 99
E 99 124 98
E 99 125 100
E 99 126 95
E 99 130 101
E 99 132 104
E 99 135 95
E 99 137 101
E 99 143 99
E 99 145 93
E 99 148 100
E 100 104 102
E 100 108 96
E 100 110 103
E 100 112 99
E 100 113 99
E 100 117 97
E 100 120 95
E 100 134 102
E 100 142 97
E 100 151 108
E 100 152 102
E 100 158 95
E 101 105 96
E 101 113 100
E 101 115 104
E 101 116 96
E 101 118 95
E 101 125 103
E 101 130 103
E 101 147 97
E 101 152 102
E 101 154 98
E 101 158 102
E 102 108 104
E 102 116 104
E 102 117 110
E 102 123 93
E 102 128 93
E 102 138 97
E 102 143 95
E 102 154 105
E 102 156 102
E 102 158 102
E 103 112 103
E 103 125 103
E 103 132 97
E 103 134 102
E 103 139 89
E 103 140 94
E 103 141 97
E 103 146 96
E 103 158 101
E 104 105 103
E 104 111 90
E 104 120 92
E 104 142 109
E 104 145 95
E 104 146 101
E 104 148 102
E 104 150 97
E 105 106 95
E 105 107 106
E 105 110 95
E 105 111 106
E 105 112 102
E 105 114 102
E 105 115 99
E 105 134 103
E 105 138 101
E 105 146 94
E 105 149 99
E 105 154 97
E 105 159 95
E 106 112 97
E 106 115 92
E 106 117 100
E 106 120 99
E 106 131 97
E 106 142 98
E 106 144 93
E 106 147 104
E 106 157 101
E 106 160 96
E 107 108 95
E 107 113 103
E 107 134 102
E 107 137 93
E 107 141 93
E 107 143 97
E 107 146 98
E 107 147 102
E 108 121 102
E 108 135 96
E 108 136 95
E 108 141 106
E 108 145 91
E 108 149 98
E 108 151 100
E 108 152 100
E 108 153 102
E 108 159 100
E 108 160 107
E 109 110 100
E 109 123 102
E 109 124 103
E 109 127 102
E 109 132 99
E 109 136 91
E 109 146 95
E 109 149 102
E 109 151 100
E 109 153 94
E 109 158 98
E 110 115 96
E 110 117 101
E 110 124 106
E 110 134 107
E 110 136 104
E 110 151 98
E 110 156 105
E 111 120 105
E 111 121 99
E 111 129 92
E 111 130 104
E 111 136 98
E 111 139 97
E 111 142 101
E 111 145 99
E 111 151 95
E 111 159 92
E 112 113 95
E 112 123 99
E 112 138 99
E 112 143 96
E 112 144 107
E 112 158 100
E 113 114 103
E 113 115 101
E 113 118 93
E 113 123 97
E 113 143 103
E 113 146 105
E 113 149 100
E 113 157 97
E 114 122 101
E 114 131 95
E 114 141 102
E 114 145 103
E 114 148 93
E 114 155 95
E 115 116 107
E 115 117 104
E 115 118 95
E 115 125 97
E 115 126 96
E 115 129 102
E 115 130 103
E 115 131 100
E 115 134 100
E 115 137 100
E 115 138 100
E 115 141 100
E 115 144 105
E 115 146 98
E 115 156 104
E 115 157 107
E 116 117 90
E 116 123 101
E 116 124 105
E 116 125 95
E 116 126 98
E 116 129 93
E 116 131 103
E 116 133 107
E 116 137 103
E 116 143 104
E 116 147 98
E 116 154 104
E 116 157 93
E 117 131 101
E 117 140 93
E 117 141 99
E 117 146 100
E 117 147 88
E 117 152 96
E 117 155 100
E 117 156 102
E 117 159 107
E 118 121 92
E 118 122 103
E 118 128 104
E 118 130 100
E 118 131 97
E 118 133 103
E 118 149 98
E 118 151 99
E 118 154 98
E 118 160 94
E 119 122 102
E 119 135 102
E 119 141 96
E 119 143 94
E 119 144 103
E 119 152 101
E 119 155 93
E 119 159 109
E 119 160 91
E 120 127 100
E 120 136 99
E 120 137 97
E 120 145 91
E 120 148 105
E 120 149 103
E 120 150 93
E 120 152 100
E 121 122 98
E 121 124 103
E 121 126 94
E 121 131 92
E 121 139 94
E 121 142 98
E 121 146 98
E 121 148 100
E 121 150 99
E 121 151 89
E 121 152 94
E 121 153 99
E 121 160 97
E 122 126 99
E 122 128 101
E 122 129 100
E 122 138 104
E 122 140 101
E 122 141 100
E 122 143 99
E 122 145 102
E 122 146 98
E 122 151 96
E 122 155 90
E 122 158 103
E 123 132 92
E 123 133 105
E 123 137 105
E 123 139 100
E 123 146 99
E 123 155 95
E 124 128 102
E 124 142 100
E 124 151 98
E 124 154 105
E 124 159 92
E 125 132 95
E 125 150 106
E 125 151 103
E 125 152 97
E 125 160 102
E 126 141 105
E 126 144 91
E 126 145 94
E 126 150 101
E 126 152 95
E 126 159 105
E 127 131 97
E 127 139 99
E 127 143 98
E 127 149 94
E 127 152 102
E 128 129 105
E 128 136 102
E 128 139 98
E 128 140 99
E 128 144 101
E 128 147 100
E 128 153 108
E 128 154 96
E 129 133 104
E 129 134 100
E 129 136 96
E 129 140 102
E 129 141 98
E 129 160 97
E 130 134 104
E 130 136 94
E 130 141 94
E 130 151 95
E 131 150 100
E 132 140 92
E 132 142 92
E 132 145 94
E 132 150 99
E 133 140 103
E 134 148 98
E 134 152 97
E 135 146 97
E 136 140 98
E 136 142 96
E 136 154 95
E 136 157 92
E 136 160 96
E 137 141 96
E 137 149 105
E 137 150 98
E 137 151 95
E 138 142 100
E 138 143 98
E 138 152 101
E 138 155 90
E 139 141 98
E 139 149 95
E 139 150 98
E 139 154 109
E 139 157 103
E 140 141 100
E 140 149 102
E 141 144 100
E 141 152 98
E 141 155 93
E 141 157 113
E 142 143 103
E 142 146 99
E 142 149 111
E 142 153 103
E 142 157 97
E 142 160 98
E 143 151 103
E 144 152 103
E 144 160 87
E 145 159 97
E 145 160 102
E 146 147 101
E 146 149 104
E 146 155 107
E 146 158 99
E 147 151 99
E 147 155 96
E 148 155 100
E 149 150 99
E 149 155 94
E 150 154 94
E 150 160 94
E 151 158 110
E 151 160 99
E 152 155 95
E 153 158 98
E 153 160 100
E 157 158 102
END

SECTION Terminals
Terminals 12
T 1
T 2
T 3
T 4
T 5
T 6
T 7
T 8
T 9
T 10
T 11
T 12
END

EOF
